c This is UnifRandomKSATGenerator
c uniform random 3-SAT generated instance with: 
c clause length: 3 
c number variables: 10 
c number clauses: 43 
c clause to variable ratio: 4.27 
c random number generator name: SHA1PRNG 
c random number generator provider: SUN 
c random number generator seed: 2766686169461003273 
p cnf 10 43
8 3 7 0
-1 10 -7 0
-3 -6 7 0
-5 6 -7 0
-1 9 3 0
-1 -2 -8 0
-10 2 6 0
-4 -6 -8 0
4 5 -7 0
9 6 -8 0
-10 2 7 0
-9 10 4 0
8 9 -3 0
8 -5 4 0
-2 1 -4 0
9 4 -5 0
-1 8 9 0
8 -10 -2 0
8 -2 6 0
8 10 5 0
8 -4 -5 0
-10 2 -5 0
-1 4 -6 0
-1 5 6 0
8 -3 5 0
-1 -4 3 0
-2 3 5 0
-1 -4 5 0
-9 -10 4 0
9 -3 -7 0
8 -5 -6 0
10 4 -8 0
-9 -2 5 0
10 -5 6 0
-9 10 2 0
1 -2 -3 0
1 2 6 0
8 -2 -5 0
8 9 4 0
10 5 6 0
-2 -3 -6 0
-6 5 7 0
-2 5 6 0
